p edge 21 40
e AR BO
e AR CL
e AR PY
e AR UY
e BO AR
e BO CL
e BO PE
e BO PY
e CL AR
e CL BO
e CL PE
e CO EC
e CO PA
e CO PE
e CO VE
e CR NI
e CR PA
e EC CO
e EC PE
e GT HN
e GT MX
e GT SV
e HN GT
e HN NI
e HN SV
e MX GT
e NI CR
e NI HN
e PA CO
e PA CR
e PE BO
e PE CL
e PE CO
e PE EC
e PY AR
e PY BO
e SV GT
e SV HN
e UY AR
e VE CO
n CU 0
n DO 0
n ES 0
n GQ 0
n PR 0
